% Logging successfully configured
=====UNKNOWN=====
% time elapsed: 1800.29 s
%%%mzn-stat: initTime=0.011687448
%%%mzn-stat: nodes=3597697
%%%mzn-stat: restarts=0
%%%mzn-stat: peakDepth=40
%%%mzn-stat: solveTime=1794.600567621
%%%mzn-stat: variables=1144
%%%mzn-stat: propagators=842
%%%mzn-stat: failures=3187009
%%%mzn-stat: propagations=79238921
%%%mzn-stat: nogoods=3187009
%%%mzn-stat: numAtomicConstraintsPropagated=0
%%%mzn-stat: allDifferentNumber1PropagationsTotal=11076811
%%%mzn-stat: allDifferentNumber1PropagationsThatFoundConflict=6908
%%%mzn-stat: allDifferentNumber1PropagationsThatPruned=6727050
%%%mzn-stat: allDifferentNumber1TotalValuesPruned=16042957
%%%mzn-stat: allDifferentNumber1TotalHallSetSizeConflict=23285
%%%mzn-stat: allDifferentNumber1NumberOfConflicts=6908
%%%mzn-stat: allDifferentNumber1MaxHallSetSizeConflict=8
%%%mzn-stat: allDifferentNumber1TotalPruningHallSetSize=23865871
%%%mzn-stat: allDifferentNumber1NumberOfPruningExplanations=16042957
%%%mzn-stat: allDifferentNumber1MaxPruningHallSetSize=16
%%%mzn-stat: allDifferentNumber1TotalFixedEdgesAtConflict=293177
%%%mzn-stat: allDifferentNumber1TotalVarsInvolvedInPruning=14323689
%%%mzn-stat: allDifferentNumber1MaxValuesPrunedFromSingleVar=6
%%%mzn-stat: allDifferentNumber1TotalSccSizeAtPruning=13802105
%%%mzn-stat: allDifferentNumber1NumberOfSccPruningCalls=6727050
%%%mzn-stat: circuitNumber2PropagationsThatFoundConflict=3179387
%%%mzn-stat: circuitNumber2TotalFixedEdgesAtConflict=146043225
%%%mzn-stat: circuitNumber2NumberOfConflicts=3179387
%%%mzn-stat: circuitNumber2PropagationsThatPruned=1073916
%%%mzn-stat: circuitNumber2PropagationsTotal=7260275
%%%mzn-stat: AverageConflictSize=40.581384928627436
%%%mzn-stat: NumUnitNogoodsLearned=0
%%%mzn-stat: AverageLearnedNogoodLength=38.772799198245124
%%%mzn-stat: AverageBacktrackAmount=0
%%%mzn-stat: AverageLbd=32.149869674042336
%%%mzn-stat: 2AutonomousSearchNumBackupCalled=0
%%%mzn-stat: 2AutonomousSearchNumPredicatesRemoved=0
%%%mzn-stat: 2AutonomousSearchNumCalls=0
%%%mzn-stat: 2AutonomousSearchNumPredicatesAdded=909
%%%mzn-stat: 2AutonomousSearchAverageSizeOfHeap=0
%%%mzn-stat: 2AutonomousSearchNumAssignedPredicatesEncountered=0
%%%mzn-stat-end
